68
0 27 57 59 10 33 41 17 26 61 
32 54 34 31 36 22 58 19 7 51 
24 30 4 35 18 52 16 5 13 6 
8 15 63 43 29 38 55 56 3 42 
25 44 49 1 14 66 45 64 2 40 
23 67 47 46 28 39 65 11 53 48 
20 60 62 37 21 50 9 12 
